
Value of objective function: 0

Actual values of the variables:
pL1_div_from_law                0
comp_pos0                       0
comp_neg0                       0
comp_pos1                       0
comp_neg1                       0
comp_pos2                       0
comp_neg2                       0
comp_pos3                       0
comp_neg3                       0
comp_pos4                       0
comp_neg4                       0
comp_pos5                       0
comp_neg5                       0
comp_pos6                       0
comp_neg6                       0
comp_pos7                       0
comp_neg7                       0
comp_pos8                       0
comp_neg8                       0
comp_pos9                       0
comp_neg9                       0
comp_pos10                      0
comp_neg10                      0
comp_pos11                      0
comp_neg11                      0
comp_pos12                      0
comp_neg12                      0
comp_pos13                      0
comp_neg13                      0
z_c0_t0               1.32138e+10
p0_c0_t0              4.00576e+09
p1_c0_t0              5.03152e+08
p2_c0_t0               7.9132e+09
p3_c0_t0              7.91719e+08
diff0                           0
normdiff0                       0
z_c0_t1               1.47752e+10
p0_c0_t1              3.51559e+09
p1_c0_t1              5.64243e+08
p2_c0_t1              9.33079e+09
p3_c0_t1              1.36457e+09
diff1                           0
normdiff1                       0
z_c1_t0               1.65566e+10
p0_c1_t0              4.09061e+09
p1_c1_t0              6.52972e+08
p2_c1_t0              1.13958e+10
p3_c1_t0              4.17231e+08
diff2                           0
normdiff2                       0
z_c1_t1               1.94959e+10
p0_c1_t1              4.16374e+09
p1_c1_t1              9.28937e+08
p2_c1_t1              1.35794e+10
p3_c1_t1              8.23797e+08
diff3                           0
normdiff3                       0
z_c2_t0               7.24754e+09
p0_c2_t0              1.38185e+09
p1_c2_t0              2.63817e+08
p2_c2_t0              5.23305e+09
p3_c2_t0              3.68824e+08
diff4                           0
normdiff4                       0
z_c2_t1               7.97123e+09
p0_c2_t1              1.13299e+09
p1_c2_t1              3.08368e+08
p2_c2_t1              5.97144e+09
p3_c2_t1              5.58425e+08
diff5                           0
normdiff5                       0
z_c3_t0               1.22612e+10
p0_c3_t0               2.5001e+09
p1_c3_t0              4.51026e+08
p2_c3_t0              8.38662e+09
p3_c3_t0              9.23442e+08
diff6                           0
normdiff6                       0
z_c3_t1               1.42798e+10
p0_c3_t1              2.85613e+09
p1_c3_t1              4.61905e+08
p2_c3_t1              8.55175e+09
p3_c3_t1              2.40998e+09
diff7                           0
normdiff7                       0
z_c4_t0               7.97197e+09
p0_c4_t0              1.10348e+09
p1_c4_t0              5.04702e+08
p2_c4_t0              6.06768e+09
p3_c4_t0                2.961e+08
diff8                           0
normdiff8                       0
z_c4_t1                8.9819e+09
p0_c4_t1              1.15246e+09
p1_c4_t1              4.64649e+08
p2_c4_t1              7.13924e+09
p3_c4_t1              2.25558e+08
diff9                           0
normdiff9                       0
z_c5_t0               1.00642e+10
p0_c5_t0              1.94595e+09
p1_c5_t0              4.21637e+08
p2_c5_t0              7.62364e+09
p3_c5_t0               7.2933e+07
diff10                          0
normdiff10                      0
z_c5_t1                1.2016e+10
p0_c5_t1              1.43583e+09
p1_c5_t1              4.21818e+08
p2_c5_t1              9.78713e+09
p3_c5_t1              3.71231e+08
diff11                          0
normdiff11                      0
z_c6_t0               1.81204e+10
p0_c6_t0              3.55315e+09
p1_c6_t0              5.37997e+08
p2_c6_t0              1.36269e+10
p3_c6_t0               4.0236e+08
diff12                          0
normdiff12                      0
z_c6_t1               2.06345e+10
p0_c6_t1              3.85881e+09
p1_c6_t1              4.93118e+08
p2_c6_t1              1.59672e+10
p3_c6_t1              3.15321e+08
diff13                          0
normdiff13                      0
